p edge 16 63
e 1 2
e 1 6
e 1 10
e 1 11
e 1 12
e 1 13
e 1 14
e 2 3
e 2 4
e 2 5
e 2 6
e 2 8
e 2 9
e 2 14
e 3 4
e 3 5
e 3 6
e 3 10
e 3 11
e 3 12
e 3 15
e 4 6
e 4 7
e 4 10
e 4 13
e 4 14
e 4 15
e 4 16
e 5 7
e 5 8
e 5 9
e 5 10
e 5 12
e 5 13
e 5 14
e 5 15
e 6 8
e 6 9
e 6 11
e 6 15
e 6 16
e 7 9
e 7 11
e 7 16
e 8 9
e 8 11
e 8 12
e 8 13
e 8 16
e 9 12
e 9 13
e 10 12
e 10 13
e 10 14
e 10 15
e 11 12
e 12 13
e 12 15
e 12 16
e 13 14
e 13 16
e 14 15
e 15 16
